Li1425 C441 H588 O441 P25 F150 
1.0
3.2996498107900003e+01 0.0000000000000000e+00 0.0000000000000000e+00 
0.0000000000000000e+00 9.0000000000000000e+01 0.0000000000000000e+00 
0.0000000000000000e+00 0.0000000000000000e+00 1.6065500259400000e+01 
Li C H O P F 
1425 441 588 441 25 150 
Cartesian
  31.8125827989   59.4432019800    4.2968785227
   2.4671482955   59.5556991900    8.1635237516
   0.0617034515   10.3886997300   15.9866187817
  32.7826814931   13.7169000900   15.9392253470
  32.7067887555   17.1539993700   15.9533630355
  32.3857334559   20.9466000000   15.9313530913
  27.2066027499   26.5166991900    4.2098035113
   0.7575995966   28.0952999100   13.0493627909
  32.5121085918   31.3181993700    5.8129798946
   4.4337394178   29.6478000000   13.8002651566
  32.8400947069   54.5228988300    5.5975415040
   0.0633532764   62.0909982900   13.1492908933
   1.6376162341   12.1005003600    1.6666349808
   1.4660343779   15.4314002700    1.1584831755
   1.3409776831   18.9305993700    1.4662982087
   1.0882244746   22.7618989200    1.0681951444
   1.2941227218   26.0225987400    1.0672312144
   1.7504642246   30.5540996400   13.1317796587
   7.7634163058   36.6920990100   14.3917967958
   1.7402353102   59.9741989200    0.5256631685
   8.4550230051   60.5637001800    1.3853281195
   3.1567749740    9.6642002700    0.2085301934
   3.3329763399   13.4928001800   15.6522955927
   2.9558262675   17.3304001800   15.6767147997
   2.5489793468   20.6181004500   15.6712527706
   7.4496192788   27.1052991900   13.8600285926
   4.6175297472   28.8387009900    0.3969785114
   8.1319871897   39.1058993700   13.6434655206
   4.1829662301   37.5119992800   13.1883294484
  28.6789057695   54.8685014400    8.7491107220
   4.3901839083   11.9312999100    1.7000512374
   4.5871730350   15.5987995500    1.2010567512
   4.8085798013   19.1411997300    1.1849913473
   4.6983712996   22.5936010800    1.0787982942
   5.0243768989   26.1900008100    1.9124371027
   6.8965982345   27.5480997300    0.0902881115
   7.0454124410   35.9334012600   11.2087390366
   7.0665298698   60.7266014400   14.2393349895
   5.9585077933   10.0574999100   15.9188222260
   6.5082291218   13.3343996400    0.0597636610
   6.2016918194   17.3412000900   15.3706669876
   6.4419065566   20.8889995500   15.9109499702
   6.4950307865   24.4214996400   15.7181645294
   8.8496611225   28.7712004500   15.4542080388
   9.6260679641   27.6381012600   12.5452274249
   4.7854823516   37.1501988300   15.9440448365
   4.1159830750   61.0470020700   14.9094273106
   7.7703451415   11.3670006300    1.3978592418
   7.9663445052   15.6753001800    1.2168010218
   8.0686339133   18.8054998200    1.1674798717
   8.2791518022   22.3974001800    1.0781557545
   8.0673137564   25.7030993700    1.5848616167
   7.0675201277   30.2516993700   15.6863547425
  10.1952575894   27.3482992800    0.9729266796
   9.4822035293   10.0674000000   15.5692371492
   9.3116120630   13.3325998200   15.8216260940
   9.6795230829   17.1855005400   15.6108468109
  10.1856893969   20.5514999100   15.5796795476
  10.2662000274   24.6743998200    0.3581000168
  14.3904328538   26.7893993700    0.3197034552
  11.5461347829   28.8512992800   10.5596923763
  10.6430204317   37.4418005400   14.6249068190
   9.7649840460   58.0599009900    5.0439242365
  10.6888858940   11.7954003600    1.4589080946
  11.1425873141   15.2100000000    1.0776737413
  11.5180880235   18.9522005400    1.6317729095
  11.5972789920   22.1048999100    1.5525699129
  15.7904737406   24.6870008100    5.0434425768
  12.6604263590   34.0983009000   14.0706470119
   7.9402773047   32.2947004500    0.2326284438
  12.6643864007   10.4246997300   16.0327261730
  12.9181288773   13.4684993700    0.0281146255
  12.7376378016   16.9416006300   15.9956152208
  13.1593333774   20.4183000000   15.8143963779
  12.2783272079   28.9926007200    1.1417751195
  13.1461345472   27.8613012600   12.6374441514
  12.8425665666   35.6679001800    0.3029953188
  13.4744500993   38.5820987400   12.5923000636
  14.4501560204   11.7611995500    1.5111208901
  14.6256977863   15.3297002700    1.5973927229
  14.7801216614   18.3753003600    1.2871678326
  14.7959598485   22.6871993700    1.8160441493
  15.7601170283   24.5880004500   15.7740717955
  14.1211815942   25.6590011700   14.1802140931
  17.3208517518   35.2898991000   13.7348778797
  16.2801420035   10.2636001800   15.9988288671
  16.4642627269   13.6205993700    0.0771144012
  16.1950114673   16.6068005400   15.8431534145
  16.1036109366   20.8187994600   15.9231600556
  12.6317197356   24.6203989200    0.3598671897
  20.1506313635   34.2261001800   15.2228647547
  22.6035905709   30.4758006300    2.6665516688
  16.8173258176   34.2774000900    3.1975164684
   7.5364003988   59.8662024300    7.1040034151
  22.1950937923   61.1181020700    6.4403378886
  17.5419276292   12.0662994600    1.7709000775
  17.6818339690   15.4620001800    1.8173293411
  17.5613964210   18.6533998200    1.4057312566
  17.9827616028   22.1471996400    1.3806691405
  16.8796893310   26.4077988300    0.8060061641
  22.0723472813   32.9679000000    2.3580941120
  22.0251631140   38.7378009900   12.6788929332
  21.3467542549   56.9304013500    3.6905666553
  17.5095923809   61.9623005400   11.7612311568
  19.4643043679   10.6874999100   16.0123230519
  19.4134895958   13.7232005400    0.1466780174
  19.6820820143   17.1395999100    0.1421796773
  19.2574166217   20.1834001800   15.8164848608
  19.0313904777   24.5682004500    0.1715795428
  19.4058999393   29.3643012600   14.9767412426
  23.6485907549   28.3482000000    1.3099809393
  16.1022912416   37.5452989200   12.5232184446
  23.2849692137   51.3522005400    4.3192097287
  16.3867208573   60.5663984700    3.1485167087
  21.2480944946   11.7432005400    1.4772227328
  21.2979199987   15.1677001800    1.7294510547
  21.2230184759   19.4400005400    1.6067106809
  20.7303804292   22.2164999100    1.4253311991
  19.0620775839   26.4744007200    2.3915102562
  23.0949089227   26.6760009900   14.8450043011
  18.2665313876   30.2589010800   12.1619049582
  21.5424236867   59.1777009000    1.7829491706
  22.6953214956   10.1402997300   15.9135210768
  22.9094685043   13.8672002700    0.1640287576
  22.8665738157   17.1638993700    0.0730980262
  22.6280076825   20.6811001800   15.7919047739
  22.4996520308   23.8356006300    0.3752901021
  25.3406499570   26.9081998200   16.0177860449
  19.9288946653   29.0574002700    2.4257297878
  19.7843703995   36.7118990100   11.0304120801
  20.8042926840   59.3027991000    5.4298178098
  24.5566544158   12.0041996400    1.6298450656
  24.7354944456   15.6401994600    1.5675108924
  24.3497666696   19.0746004500    1.3204234663
  24.3969508370   22.8923991000    1.2450762862
  27.8183567029   22.9374012600    1.3531970547
  21.6061068951   28.6280992800    0.2388939889
  19.2567558008   33.2010000900    5.4084508872
  26.3434143264   10.4498997300    0.0443407807
  25.7748854889   13.6125004500   15.8012229729
  26.2219875103   17.7381000000   15.7412986730
  24.6714808434   22.9121991900   14.4268192651
  30.4009932038   25.9874993700    1.4256524770
  27.6213695230   31.4306991900    1.0932572445
  26.9020445114   32.9651990100    2.8739574217
  31.9864744759   31.7421009900    0.3788244961
  27.9209774949   12.1914003600    1.3943248157
  27.4758540425   15.4178993700    1.2068404116
  27.8813810042   19.0350003600    1.4160132411
  26.1368569742   20.9457000900   16.0523268544
  29.5374743203   27.5769013500   15.0538559812
  29.3912999657   33.4242000900    0.7745177514
  24.9555810220   31.0985988300    2.4554511078
  26.1913004041   61.2692982000   14.8098209519
  29.5219665602   10.3959001800   15.9912773912
  29.9166056344   13.5161997300    0.2774512055
  29.7202753818   17.2485002700   15.9257301983
  29.4447541277   21.0527993700    0.0552653209
  32.4649244244   24.4385987400   15.5199161116
  31.7683684153   32.6736000000   11.0633460665
  29.6113865751   37.7028009000   14.9658171843
  30.6349394312   32.9255989200   14.8244403001
  31.8280925389   57.0933026100    2.8072855475
  31.3417244867   12.0006000900    1.9005486486
  31.0262763480   15.4908004500    1.6423760594
  31.4301552006   18.8486994600    1.4971439531
  31.0153884605   22.9139989200    1.5951434886
  32.4672333873   27.3474008100   15.8873341668
  32.1125211647   30.4326009900    2.9722782191
  22.0033853592   36.4292988300    3.0776678686
   2.1434526161   57.6980978400   10.0777278184
  32.7114086612    9.9980997300    3.1284348494
  32.7189983177   13.8960005400    3.0355763061
  32.7797117093   17.0982000000    3.1978377302
  32.4870326061   21.0626993700    2.8080887100
  30.9573144258   25.6454989200    4.8459975625
   3.3715820777   24.9308994600   15.7772854257
   7.2460312155   33.6905998200   13.7173666290
   0.7595793534   41.4414006300    3.7779629285
   1.3215097492   12.0230998200    4.6146542784
   1.3502167356   15.5025002700    4.9374103875
   0.9493092506   19.3113000900    4.7059062235
   1.7125182188   22.9022991900    4.7039786205
   1.7418851681   26.1423003600    4.2809736131
   1.2987422315   33.0803999100    6.7881557443
   0.6477212579   36.7649987400    6.7012416289
  31.6195546708   61.9010979300    5.4013820350
   3.1805324856   10.0143002700    3.4164892852
   2.9462573161   13.9922999100    2.9237603601
   2.7614770256   17.2106999100    3.1854675039
   2.6723864478   20.8889995500    2.8847213230
   3.3488145270   24.2784011700    2.6347421229
   2.7987630355   28.1844001800    2.5370638492
   1.4855023118   28.9673987400    4.8959611237
   0.7308724661   29.6531992800    1.0600017392
   6.0928035076   61.1451011700    4.7478371471
   2.0434731608   60.8607011700   10.2512352854
   4.7439063350   12.4344004500    4.4245993782
   4.6115906416   15.4142998200    4.3556786231
   4.5531867079   19.4031000000    4.6835754995
   4.9544242239   22.6277991900    4.3886126095
   5.0778310608   25.6176012600    4.6509622930
   8.5833786569   24.7112989200    8.0806252241
   6.8124569664   32.1497994600    5.1523666364
  32.7790508884   56.9421010800    4.9298594096
   6.1683653233   10.2113997300    3.3396962743
   6.4709430790   13.6574998200    2.9549273824
   6.1739749919   17.0766001800    3.0738121807
   6.0278001424   20.6558994600    2.8151575462
   6.4293675903   24.0164995500    2.5372244881
   6.3838325219   27.9404989200    3.2959981457
   8.7674993803   28.4787001800    2.5797979353
   6.0769648256   30.4469991000    2.0179873912
   4.6191798361   62.0351976600    9.8450994710
  12.2598486740   61.6409987400    4.1023253948
   8.2359256968   12.0464993700    4.6569064638
   7.8049918274   15.6680998200    4.7809320294
   8.1237376692   19.3949997300    4.6273460236
   7.7350391524   22.3065000900    4.3916653758
   7.6436386217   25.9397989200    4.1699610706
  11.7543422240   26.3465988300    2.2657174855
   9.4848429192   30.6035998200    1.2224239308
   5.5061255733   56.3814014400   14.8530374207
   9.5409374279    9.9801000900    3.3850009850
   9.3828839380   13.9473004500    2.8149969233
   9.7781818863   17.4563996400    3.0073009293
   9.7517852158   20.6784005400    2.8633541594
  10.2625704126   24.1127988300    3.1483560698
  10.3460518167   29.8710000900   14.4126815766
  10.2011971571   32.0634001800   15.2757202024
   7.9973610814   32.3549991900    3.0662614277
   9.6630240749   61.1253010800    4.0883485703
  10.5143343531   61.8057024300    9.4227374692
  11.1762442041   12.0699003600    4.5834870152
  11.4085393528   15.3504001800    4.3161574443
  11.2214488456   19.0944005400    4.9264858634
  11.5903501234   21.8070003600    4.6516048326
  14.9266254531   26.3061001800    2.9192621325
  11.3468357034   30.3677988300    2.8151575462
  13.8908659714   30.2265000000    4.0743712798
  19.0983738638   61.3746017100    4.0539681587
   7.6159217613   59.3540990100    3.4261285050
  12.6495374487   10.3283997300    3.3915876955
  12.6977128638   13.4991006300    2.9189408546
  12.7712946917   17.3654995500    3.1016054158
  13.1081891683   20.5974005400    2.8027870789
  13.1741822965   24.1929003600    3.4349645623
  16.9024563538   28.4121009900   15.4619194147
  15.8538275119   33.0560991000   13.4861842249
  18.1266269945   37.3131000900    2.1908523186
  14.3109114913   57.4694985600   11.1944404844
  14.6415360064   11.8097998200    4.6469457251
  14.3976921164   15.5969998200    4.4938418611
  14.4508158514   19.2069004500    5.0784650460
  14.4316784434   22.3100996400    4.8043879008
  16.9285235873   27.3563996400    4.0671420457
  15.3694389857   31.9725000900    2.3659661268
  13.6701195641   26.4473989200    5.0220751722
  16.3316166065   10.2509998200    3.1085136291
  15.9382981841   13.7169000900    3.2932668982
  16.0676450836   17.1935994600    3.1833787800
  15.8541569159   20.1572996400    3.1947854619
  16.8199652075   24.3252003600    2.6030929588
  18.2764300070   25.3628987400    4.6895196703
  15.3093854251   33.9749998200   15.7485283891
  24.1979811945   38.1906009000   10.0761210113
  19.6824104284   55.0233024300    3.1539789627
  18.0480949000   11.7432005400    5.0056886030
  17.8824517206   15.5421003600    4.7121716722
  17.9715432884   18.3843004500    4.6755423798
  17.3762864295   22.2686997300    4.1678725877
  19.8434337352   24.5286002700    9.3080291547
  24.2105211506   28.9530006300    6.9136272531
  17.5320289767   31.6053002700    3.6055801429
  19.8193469845   10.1447998200    3.0583891719
  19.5045596996   13.6790996400    3.3583321903
  19.5316162011   17.0766001800    3.0246517820
  18.8739978086   20.1788994600    3.1085136291
  21.0992807501   25.7418009900    1.7986934251
  25.0502817305   28.6524000900    4.2520561786
  18.1550031910   34.3197011700    0.9107532097
  22.5910525616   34.4124009900    0.1871630780
  19.5382165896   58.9985990100    7.4301330864
  17.3165623060   54.6714019800    5.8226193554
  23.4766776139   57.1067994600    5.1526879143
  21.0610039544   12.0114000000    4.6185099664
  21.3741411834   15.6663000900    5.0145246602
  21.1111598854   18.8963999100    4.5187432098
  21.1425058657   21.5774998200    4.1138924586
  24.1630065893   25.8084001800    4.2253871429
  19.5098404262   24.0552010800    2.8601409951
  19.5966210512   35.1918000000    3.5867835879
  23.0843494494   54.1611009900    3.0257762064
  21.2570038461   54.6795022500    5.2804087698
  22.8348974085   10.2968998200    3.1403234160
  22.9550045296   13.6755001800    3.3368043878
  22.7035700262   17.3313000900    2.7950757030
  23.3067469685   21.1211997300    2.9343636224
  20.0532912651   23.6888999100    5.1276256857
  21.9746787358   24.3476986500    3.6478325692
  23.0774206137   31.1066991000    5.0673801240
  20.5413094392   36.3555005400    1.1347062673
  21.0375780906   52.1126979300    7.6044439731
  25.7841232875   61.7354982900    1.9097059837
  24.5619331626   12.1175993700    5.0444063783
  24.4906603307   15.7715995500    4.7492830903
  24.4329166900   18.9476998200    4.8381253067
  24.4923104196   22.9050001800    4.4509466701
  21.7050970823   27.7586987400    3.4462103643
  28.8023131014   28.9853990100    6.3433021546
  30.5201110569   36.4113011700    5.0207900929
  24.9753802408   60.4826974800    4.5322383746
  26.3840000521   10.4741999100    2.9515535952
  26.0273073466   13.5692994600    3.3310208559
  26.2827009019   17.4726001800    3.0513205767
  26.1262975338   20.8620004500    2.8509836760
  23.9534774735   25.5501008100    1.4054099788
  26.6750290664   29.0528994600    2.1453869689
  29.3873409139   32.3252991000   10.3527692471
  22.9635834871   36.5642997300   15.5936563561
  30.3178431834   55.9314018900    4.2557510026
  27.9618916677   11.9537995500    4.5561759218
  27.7025390276   15.4142998200    4.5942511413
  27.6649230857   19.4381993700    4.8983708845
  29.0959814726   24.5151007200    3.3739158219
  26.2338666456   24.4727996400    2.6180338098
  27.1858142632   25.5014991900    8.2965457564
  31.2542830078   29.3202003600    5.0249670587
  29.5440747418   10.2014997300    3.5106331327
  29.2992405939   14.0021999100    3.0302746750
  29.1900213602   17.2349993700    3.0964644075
  29.2777932331   20.9664000900    2.7902559726
  28.9527769018   24.5438996400   15.5586338869
  29.4262765507   28.8449987400    1.7222215796
  32.3500960500   27.4779009900    2.5814045174
  31.5736882186   32.7276009000    4.3555177432
  27.6025615521   60.7707023400    4.7574766239
  31.1902694055   12.2022002700    4.7275949059
  31.2410842106   15.6995996400    4.9507446724
  31.1777314292   19.0566001800    4.3727077160
  31.1668415619   22.5324010800    4.3677273467
  28.6323804432   26.1918005400    6.2356631582
  29.6763913922   27.5031003600    4.0624829381
  30.0357215408   34.3494012600    6.4462820594
  32.8909094789   61.0155022500    7.4012151860
  32.7417653405   10.6370998200    6.1169392238
  32.7737721416   13.5342000000    6.4938358759
  32.9011385253   17.5239000900    6.3132595727
  32.6935899583   21.1446006300    6.1362176795
   0.0943699846   24.2693996400    6.2792009049
  32.5193678544   27.4841988300    5.7874360062
  30.0363823616   31.2516000900    6.0351658596
   1.3297588737   39.7043993700    8.2965457564
  29.9552108773   53.2449012600    7.1062527779
   2.3417614377   60.2640009000   13.6723834372
   1.3413076151   11.8692000000    7.8330557687
   1.0103527391   15.4719002700    7.8166691994
   1.6584039949   18.9648002700    7.9700948072
   1.6630235046   22.7762997300    8.2200735414
   1.5670037281   26.0415002700    7.6706337057
   7.7597866910   29.9906990100    4.5344872394
  31.8363410694   38.3102998200   10.3458612748
   0.5302537576   56.9636982900    7.6903942870
   3.1689837773   10.5713998200    5.9513040125
   2.9574761254   13.8780002700    6.1347717363
   2.9459274171   17.2764006300    5.9418254316
   2.8113015398   21.0284999100    6.1927684332
   3.2950302351   24.1794008100    6.1471422197
   5.8354308884   28.6973994600    5.7549836796
   4.7673342116   30.7412991000    6.9883317811
   7.0233047543   31.2219000000    7.6078175193
  30.6039218981   58.5872983800    6.3799314469
   4.8296972301   11.9493001800    7.7917678507
   4.6927621259   15.3819000900    7.4505362236
   4.3990932597   19.1528995500    7.8730590893
   4.5488972292   22.7430000900    7.8812526068
   3.1026607171   27.4482009000    6.0692245273
   7.8907826895   29.1518998200    6.8453490377
   8.5058368203   32.5304988300    8.8728154917
   3.3230772255   56.3409000900   13.7666876666
   5.7209329079   60.6050973900    8.5020229264
   6.3564456265   10.3716000000    6.4470854629
   6.3719538816   13.6196994600    6.0101036470
   5.9248513982   17.4123000900    6.0664935208
   5.8766764780   20.9411993700    6.2902858270
   6.4247481796   23.8689002700    6.2207225322
  10.0071778142   26.7335987400    3.7355501043
  19.2551056789   26.1494994600    7.3379173238
   4.9844510042   30.7394993700    4.6928932165
  11.1835034667   54.8621982000   15.6913350957
   6.5633333726   59.7708016200   10.4838636489
   8.2289968611   11.9862006300    7.5882178018
   7.5750061036   15.4178993700    7.9313770480
   7.5944739385   19.1574002700    7.4849166351
   7.9346681310   22.2272998200    7.8158657959
   9.3380087006   26.6291991000    6.1357360197
   7.0259441441   26.5976991900    6.2867514009
   9.0548987798   31.5171012600    6.5905503481
  10.1196962357   60.0164973900    7.0363677394
   9.8926798338   10.2447000000    6.3212922103
   9.6217784853   14.1516002700    6.4252363987
   9.6023106504   17.3033997300    6.1656177377
   9.6435562400   20.9637004500    6.4316622293
   9.1133032414   24.1677009900    5.8134620363
  12.5063328778   28.0935001800    3.8206972556
  15.4789876234   25.3574994600    7.3954318790
  13.4467327769   38.5146009900   15.5390341693
  12.8148502011   56.8035006300    8.7325637708
  13.1500945889   59.2622977500    8.1966186179
  11.4765120069   12.1104003600    7.6682239609
  11.2395969855   15.1569002700    8.2889952444
  11.2778727913   19.1268002700    7.6777025418
  11.0257794138   22.9806009000    7.3385598635
  12.4017335499   25.6149002700    8.3497220000
  15.5354115691   26.9963988300    5.9323468346
  11.7203558970   26.6669994600    6.3457118993
   8.2019393697   60.8939981100    9.4481209596
  12.8554359598   10.1484000000    6.1162967001
  12.9448559747   13.8087000000    6.1686700061
  12.9049300470   17.0522993700    6.7672704815
  12.9785128648   20.9259000000    6.8535425552
  11.3996300013   24.5466005400    5.5038797981
  17.5637053839   23.7077987400    6.6053305602
  15.2460316538   28.7019002700    2.1111674373
   8.6137353691   37.8270006300    6.5717535522
  17.2551880606   58.5800993700    5.3008118909
  14.6263576503   61.0353022500    5.2055433619
  14.4151804254   11.8637993700    7.8283971431
  14.7543838650   15.2901000900    7.9278426219
  14.8249968659   19.1952006300    8.2857816142
  14.9569821654   22.6592991000    7.9320195877
  13.4467327769   24.5222997300    6.5401046291
  13.6460318565   28.5993003600    5.9513040125
  15.7538480566   30.3687000000    6.7157005791
  16.3606536238   10.2897000900    6.5428356517
  16.4626126380   13.8032993700    6.2565484210
  16.3355766482   17.0801997300    6.5317502477
  16.4583231593   20.5748994600    6.5566520623
  16.1837921630   23.5863000000   10.1302615383
  16.1197795506   29.5820992800    4.3294917292
  16.4405054462   32.2307994600    5.4860468197
  24.3088505170   35.3825989200    5.5408303523
  19.1828435461   54.0063000000    9.0998209622
  19.2897518700   61.3791024300    9.8518465634
  18.2516824685   11.9330996400    8.0213434478
  18.1830509403   15.2306999100    8.0057602981
  18.3467135709   18.9450001800    8.0163630945
  17.9692323787   21.9032997300    8.4065944975
  17.7319879202   29.1293987400    6.3301282676
  19.5682428749   27.2456994600    4.9788591693
  20.4479303724   33.5285997300    8.2931722102
  17.3492279482   58.8852006300    1.4073378227
  19.8731315734   10.1106002700    6.6642905927
  19.5421756744   13.9022997300    6.2996040260
  19.6504036603   17.1468002700    6.3029775722
  19.2692957570   20.5659006300    6.2081911849
  21.4005388108   25.7886001800    5.6699971511
  18.9749665319   30.1617005400    4.2425771157
  27.4959816753   26.9036990100    0.9591103816
  22.0713580133   34.0551012600    4.8112958731
  25.5877949817   53.1864023400    8.3550241131
  21.3823916608   12.3453001800    7.7702400482
  21.0088695204   15.4178993700    7.8396429451
  21.1913401219   19.1816997300    7.8417314280
  20.5634175878   22.8465011700    7.5546407938
  25.9557060346   27.1898988300    6.7447788775
  21.1213889318   28.9385998200    6.0162086817
  17.2667368020   27.3716989200    7.8308068878
  17.0506112242   60.0993025200    8.8169072777
  26.0160890322   57.7566021600    5.5744073764
  22.8233487002   10.2248999100    6.3116532315
  22.7830913886   14.0274006300    6.3182399260
  22.9893202937   17.3249995500    6.3701315882
  22.9929489516   20.8233001800    6.4549572368
  22.8137785278   23.5466999100    6.3209709485
  26.4750701559   30.3128993700    7.3186384022
  23.6957749223   35.3502005400    8.2475454987
  22.7708838062   30.7358998200    8.1293037220
  27.7754619813   61.2054026100   10.2419171025
  24.2943319919   11.7800997300    8.0909076905
  24.7559525055   15.5223002700    7.8815738687
  24.5546739330   19.3139997300    8.0491371649
  25.0153051456   22.9392009900    7.9239864520
  26.4984980325   24.1838988300    6.0245625973
  19.9704696919   28.5498001800    8.1824809295
  22.5481578729   36.2079012600   10.7038002671
  27.6124601716   55.3815007200    3.8658413435
  26.3024981738   10.1861997300    6.1053721600
  26.3203168767   13.5458998200    6.2440175557
  26.1721620063   17.4176993700    6.6193073847
  26.0019009339   20.9628005400    6.3206496867
  27.7173879467   22.3875000900    4.5849329584
  27.5867213852   28.5272991900   13.4519651592
  29.8595209008   31.3613990100    3.2302900729
  29.1438264939   37.3707005400    7.7704004462
  24.8259056754   61.6796976600    6.8911356491
  27.9104180215   11.6882998200    7.9112947068
  27.7563236165   15.6555001800    7.8868754998
  27.5774835866   18.9980998200    8.1657721345
  27.7236579412   22.1471996400    8.0023862699
  30.8058613244   25.8111011700   10.7961769096
  24.7411035864   30.2993998200    9.7382633963
  32.7780616204   34.5293990100    5.2449036769
  27.8328751951   61.5383988300    2.3482942532
  29.6044577064   10.4112001800    6.2411256693
  29.3886606088   13.8410997300    6.3706132479
  29.3328974839   17.5481995500    6.2787187632
  29.6648426838   21.0249003600    6.3788067655
  29.5166878134   23.8445994600    6.3482825239
  29.7427139574   29.6792999100    9.5721465252
  28.9795049562   27.0711010800    9.1868954755
  23.1246067609   42.9200998200    1.9209518981
  25.1981062070   52.9479002700    5.0688260672
   0.1009692842   59.6160006300   11.8854175863
  30.7830923219   12.1976995500    7.9408556289
  31.1077782592   15.5952000900    7.8770756410
  31.1477051438   19.1781002700    7.9034229329
  31.1090979212   22.9616993700    8.2610406635
  31.0688426224   26.1179995500    7.4629066909
  28.4733376853   32.0723989200    7.7347349553
  31.4991171557   36.7659000000    8.1048845150
  31.9729471985   57.1554010800   10.1704252408
  32.7734417477   10.1313002700    9.5535101272
  32.7892799348   13.5890994600    9.3510847436
  32.7219681016   17.1675002700    9.4797698827
  32.9519532974   20.7702004500    9.8237320665
   0.0042895448   24.2810994600    9.5250748344
   0.5097958958   28.9071000000    7.7593155241
   6.3670040769   33.4656000000    8.9007691248
   2.7063727748   35.5130991000   12.3858576462
   3.9843272455   55.3140002700    8.7595531205
   1.2020624591   11.7369000900   11.0596507765
   1.6171584053   15.6797996400   11.3999186182
   1.3881627084   19.0934993700   10.9915334410
   1.7874203355   23.0697011700   11.2821584853
  32.3576857066   26.6624987400    9.4005666611
   3.6550221614   32.5844997300    8.9075162172
  32.3167695540   33.9201003600    8.0544383301
   3.3725720716   10.0152001800    9.4296454415
   2.8951126450   13.8095999100    9.3902851426
   3.2848014196   17.0235005400    9.2736492091
   2.9462573161   20.9430004500    9.4298063214
   3.0363376899   24.8391008100    9.4641862510
   3.4187672350   27.7217996400    9.2479449388
  30.8124597662   28.3301997300    7.9284851615
   4.1958346334   38.5388991000   10.6083708742
  31.3443638436   56.6226017100   15.7467607021
   5.9822650740   58.6044001800   13.1883294484
   4.3776454040   11.7413994600   11.1907451783
   4.6092807217   15.3117000000   10.9643822636
   4.4373690656   19.3320000000   11.1110602970
   4.7666738857   22.6728013500   10.8575471528
   5.0355957082   27.1341008100   14.1416562338
   6.8032181779   27.3042011700    8.8119269083
   3.5042281651   35.2629000000    8.2732507489
   1.3990514868   54.7182011700    8.3121293881
   6.1917927050   10.2059997300    9.1348434314
   6.1812337596   13.4477993700    9.6425132075
   6.0895037918   17.3636998200    9.4204881224
   6.1855237003   20.6225999100    9.1399846646
   6.2841829987   24.3872988300    9.3713279648
   1.3046815352   25.7840993700   13.9392308502
  10.0573327553   28.7288993700    4.6013199936
   9.4505271551   38.0142000000   11.2450465853
   7.4146431888   56.8593013500    0.8416715907
   7.9373074879   11.5550999100   10.9679166737
   8.2329564079   15.5573997300   10.7322365239
   7.8079611163   19.0863002700   10.8665435919
   8.0122095056   22.5360006300   10.9794842194
   8.2118384841   26.1108005400   10.8099928382
   4.9946800506   31.0284000900   10.2745303090
   9.7930308054   34.4934010800   10.0957207288
  10.1081475273   10.1916003600    9.4799307626
   9.3789248532   13.5359998200    9.6915134653
   9.4228098327   17.4735000900    9.1912333052
  10.0487537978   20.6073005400    9.4937467072
   4.7000213885   25.7787000900    7.5168868200
  12.4865346490   28.0287006300    8.5425083887
  10.5522797319   31.8077990100    4.9358035804
  10.3849874865   31.0688987400    8.4011324684
  15.1668406853   60.4503018000   12.7860497878
  11.9655204388   59.2209005400    4.6914472733
  11.2544459046   12.3534004500   10.8625275060
  10.9888232699   15.1613997300   11.2916366003
  11.1109109069   18.8657999100   11.4458660936
  10.6037543680   24.1578009900    9.1803092470
   9.8171185130   26.5473005400    8.6551272724
  15.0031780216   28.3751991000    7.9617404258
  13.3856889585   29.8466992800   11.4807276990
  13.1959590944   55.0952982900   12.8989904153
  12.8729242358   10.2285001800    9.3052981321
  13.2434746456   13.7186998200    9.8365846755
  13.0223978113   17.0784000000    9.8500798243
  12.8405870407   20.9619006300    9.4132584063
  13.1761618224   23.6627992800    9.7326405033
  14.0809253056   25.7796013500   11.4389571734
  12.2311420506   30.5586004500    7.0813514293
  15.9554570560   30.2445003600   12.0076764127
   9.8362559210   59.5215010800   15.2717041165
  14.1248112420   59.7680980200   10.4971979338
  14.5989707218   11.8071001800   11.1589353753
  14.7570242118   15.2892002700   11.3083453953
  14.3914231117   19.1330994600   11.3746950438
  14.9437843251   23.0598011700   12.4906052381
  15.9082718988   30.5928012600   14.4292294917
  14.8965991678   34.8497995500   12.1307376949
  15.3321524479   36.4634996400    1.6685628248
  16.4824108668   10.0719000000    9.8361020519
  16.4932997442   13.6286996400    9.3639373687
  15.9924131669   17.1827995500    9.6026712488
  15.8864941440   21.0428993700    9.9302463814
  20.7623872304   26.1080995500   11.2508303581
  20.3799576853   31.4019003600    6.6524022510
  14.3165206321   28.5767993700   14.5481138081
  17.5330182777   29.0322009000    9.6486177763
  22.6329579822   60.5403006300   11.6934346011
  17.8171184564   12.1131000000   11.2267319310
  17.8144790665   15.4080006300   11.0310546198