Li C  H  O  P  F 
 1.0000000000000000
    32.9964981079000026    0.0000000000000000    0.0000000000000000
     0.0000000000000000   90.0000000000000000    0.0000000000000000
     0.0000000000000000    0.0000000000000000   16.0655002594000003
 Li  C   H   O   P   F  
 1425 441 588 441  25 150
Selective dynamics
Cartesian
 29.1771430885502205 56.8182795943082297  1.7341700667648756   T   T   T
  6.3918815251672214 59.6387168869313413 10.0522471888628733   T   T   T
  0.0617034515000000 10.3886997300000008 15.9866187816999989   F   F   F
 32.7826814931000001 13.7169000899999993 15.9392253469999989   F   F   F
 32.6118303195795747 17.3667916775207942 15.8565510973757586   T   T   T
 32.5797430720310643 20.5263408038151063 15.6816939182387696   T   T   T
 26.5804950174658678 25.6302566032250105  2.6403875108576331   T   T   T
 32.8003505650781335 29.0181032140968043 14.0958793458304434   T   T   T
  3.7242359668053924 42.1564273360602684  1.6441058363072703   T   T   T
  4.8633204725631431 32.8971309353724948 11.9119017146930837   T   T   T
  1.0160770771080678 55.1924242131540694  4.4464963149895880   T   T   T
 28.9017207413889707 55.5636331612143763 10.8736501131356604   T   T   T
  1.6376162341000000 12.1005003600000016  1.6666349807999998   F   F   F
  1.4660343779000000 15.4314002699999993  1.1584831755000000   F   F   F
  1.6367147232968051 19.0499255813091217  1.5556808236492390   T   T   T
  0.6949786735543672 23.0544473318239547  0.9604389069797321   T   T   T
 32.5443323258431505 31.0724212076154593 12.1391484793293909   T   T   T
  4.0821214818018561 35.5951247653370899 13.5637897359098041   T   T   T
  6.3292960647648489 35.4933211003629339 11.2951366901855064   T   T   T
 30.3467058643435941 54.4302747588976388  8.5469218831976530   T   T   T
 14.2244910373154863 61.6263520235763451  8.8682932155325638   T   T   T
  3.1567749740000002  9.6642002700000003  0.2085301934000000   F   F   F
  3.3329763399000001 13.4928001799999997 15.6522955926999998   F   F   F
  3.2049804988528505 17.4072682712893076 15.9732781939413311   T   T   T
  2.9228266405541850 20.7926330916495665 15.6959736535640513   T   T   T
  3.5039331386400052 27.6358502609125232 11.5636920064386377   T   T   T
  1.7964004246989504 31.8642740927319146 12.5326972234640266   T   T   T
  5.7477777403105632 38.9056505095564802  4.4252474827359611   T   T   T
 32.5001961915286657 39.0496030797663494 10.5047401930777138   T   T   T
 24.2691586237942118 53.6784439237545499  6.4539118865189202   T   T   T
  4.3901839083000000 11.9312999099999999  1.7000512374000001   F   F   F
  4.5871730350000002 15.5987995500000007  1.2010567512000001   F   F   F
  4.3562395688539475 19.0975221374607251  1.5853313930699697   T   T   T
  5.0572131505122222 22.7482571517246193  1.2951492169809453   T   T   T
 31.3842280879643134 25.2983960692225054  0.5628193391266417   T   T   T
  7.0681426020828093 26.7300627771434485 14.5628320398103330   T   T   T
  9.7752985017100151 38.4265986354199356  7.9910874502703484   T   T   T
  8.1382684415244420 64.0357355238607369 12.3094815047646744   T   T   T
  5.9585077932999999 10.0574999100000007 15.9188222259999996   F   F   F
  6.5082291218000012 13.3343996400000009  0.0597636610000000   F   F   F
  5.9954112395024355 17.3914108454200438 15.7065412480460900   T   T   T
  5.9421941472434261 20.6362407745134995 15.9085435567362889   T   T   T
  6.2166675181060604 24.0127055448610278 15.4748016608157855   T   T   T
  6.5365183616486267 29.6115526461025027 11.1611891712562290   T   T   T
  7.6170509856934387 27.6787967971555950  6.1165758609328460   T   T   T
  6.9155409694934518 40.2774119117470448  0.3107632281937850   T   T   T
  4.5755027507200605 64.1001053115649739 11.8280433551707951   T   T   T
  7.7703451415000009 11.3670006299999997  1.3978592418000000   F   F   F
  7.9663445052000013 15.6753001800000025  1.2168010218000000   F   F   F
  7.9515066260055605 19.2985358158321105  1.1163386395428208   T   T   T
  7.8716216340160505 27.1801510311099825  1.3438269606260591   T   T   T
  3.4611933225021501 26.6085715641889209  4.6371057256504571   T   T   T
  5.3424059770734207 28.3043981577999837 12.7987536261258317   T   T   T
  8.1418097704203074 28.4263775224610455 12.7950881375633880   T   T   T
  9.4822035292999995 10.0673999999999992 15.5692371491999992   F   F   F
  9.3116120630000001 13.3325998200000022 15.8216260940000009   F   F   F
  9.6182961039069426 17.2896883275377320 15.8509161585248606   T   T   T
  7.8939791269056530 22.2929951102719741  1.3906550914566529   T   T   T
 10.2212113396113597 20.9714635294360079 15.6793730663021247   T   T   T
 11.8947463592317746 24.6090998108436771  0.2575806634316358   T   T   T
  8.2973652959574640 25.6350005599609361 11.2002908673487998   T   T   T
 11.6515951706913441 42.1927756839056656 11.1011892082507124   T   T   T
 11.7000052435164594 56.5548763652512392 12.2642243299267371   T   T   T
 10.6888858940000002 11.7954003600000004  1.4589080945999999   F   F   F
 11.1425873141000000 15.2100000000000009  1.0776737412999999   F   F   F
 11.2268089924092980 18.9921488269042662  1.3867001511252808   T   T   T
 10.9800545114903194 21.1815228999946648  5.1927345909259346   T   T   T
 14.8764684757893857 22.6378309266166404  7.9590442625856683   T   T   T
 10.3313576023165616 33.9815694619574629 13.3825059028012952   T   T   T
  6.3363841735135331 30.2850323897967471 14.2013415301208337   T   T   T
 12.6643864006999998 10.4246997300000004 16.0327261730000004   F   F   F
 12.9181288772999991 13.4684993700000000  0.0281146255000000   F   F   F
 12.8145587669014187 17.0154687007831171 15.9278488641555693   T   T   T
 13.3173343574081446 21.7614168658234668  0.4028408272078998   T   T   T
 10.6938931214479762 28.7285500951661064 15.4279092585234707   T   T   T
 10.4305274121132570 26.3786275738479752 10.1579242083235783   T   T   T
 14.5269954890246336 33.8768088046428630 13.7404455767798428   T   T   T
 12.4996731583114240 44.6288322086026383 10.6822925741186587   T   T   T
 14.4501560204000015 11.7611995500000024  1.5111208900999999   F   F   F
 14.6256977862999999 15.3297002700000000  1.5973927229000000   F   F   F
 14.3838182571224440 19.0673876640762359  1.6777318332047126   T   T   T
 16.4398373090776175 23.7986854966003634  0.9646454156207366   T   T   T
  9.5333880346867712 20.5102101000834587 12.6669902945614705   T   T   T
  9.9162502202236418 26.9567412028088214 13.6997975200667668   T   T   T
 12.0899090898085841 34.8557710373353444 11.4791638583821083   T   T   T
 16.2801420035000000 10.2636001800000010 15.9988288670999985   F   F   F
 16.4642627268999995 13.6205993700000008  0.0771144012000000   F   F   F
 16.2879551280708057 16.8547737277814917  0.1036885627829169   T   T   T
 16.0608403824421409 21.0480528828189506  0.1184831854495739   T   T   T
 13.7718318172992831 24.1206706985260375  1.9694160186786265   T   T   T
 14.9940059646460124 35.9250846859211634 12.4677982921693093   T   T   T
 21.8333810012210918 30.2345919999980701  3.6820962686635914   T   T   T
 17.0320735124729516 37.8900516825614346 15.8015497573063435   T   T   T
 10.6420554136897394 61.2357782574660732  0.9167940372412150   T   T   T
 23.3921747829313098 65.1520390034278165  2.5129535488800121   T   T   T
 17.5419276291999999 12.0662994599999998  1.7709000774999997   F   F   F
 17.6818339689999995 15.4620001800000004  1.8173293410999998   F   F   F
 18.1536734538526048 19.3509348072977367  1.4711320440466757   T   T   T
 20.2538399264727893 25.4403166906407812  0.8437504750860817   T   T   T
 11.2539700872168229 23.1597349976455860 14.3635967575768646   T   T   T
 23.0290513656894689 32.2161467394472041  2.1907944653606846   T   T   T
 21.7403563746859803 37.4124616459248642 11.3779901586131089   T   T   T
 24.7573630672389342 55.5473437653806528 15.2375137089022896   T   T   T
 15.9820848366625547 62.5253230070140376 11.0546365933816571   T   T   T
 19.4643043678999987 10.6874999099999997 16.0123230519000010   F   F   F
 19.4134895958000016 13.7232005400000006  0.1466780174000000   F   F   F
 19.4204602399635498 16.7874311029752867 15.9732257119974843   T   T   T
 19.3368451271511432 21.3909146729970274 15.3572717099395692   T   T   T
 19.0207948182552968 27.0085550146009155  1.8248551345038653   T   T   T
 21.0748609086335392 27.7198535361186025  1.9994367847630636   T   T   T
 20.4838523767486933 26.6687556338742304 13.8417120257936812   T   T   T
 13.0600824491287550 38.0702695717768407 12.3980825910752941   T   T   T
 20.6981747928079258 49.8744910631590912  4.5235205048724003   T   T   T
 16.0340369654383821 58.4529351492062190  0.9838172416588157   T   T   T
 21.2480944946000001 11.7432005400000001  1.4772227328000000   F   F   F
 21.2979199986999994 15.1677001800000006  1.7294510546999999   F   F   F
 21.3312065753519988 19.3201902787765292  1.0092930997515974   T   T   T
 16.6514398158966408 28.8599063650588974  0.0884493055524483   T   T   T
 19.0028918141211420 32.4959686440055648  0.8210000861764394   T   T   T
 22.0596826943085276 24.8470707160832269  8.6038431286994328   T   T   T
 15.1101710575511223 27.2286294054777755 13.2678368409230085   T   T   T
 20.2274661677825129 53.4627908197874930 11.7902787373690057   T   T   T
 22.6953214956000018 10.1402997300000006 15.9135210768000004   F   F   F
 22.9094685043000048 13.8672002699999997  0.1640287576000000   F   F   F
 22.8720050824581520 16.9925708370920319 16.0381742215709338   T   T   T
 22.8223129474510174 21.3257819675563631 15.2344032197845856   T   T   T
 20.1636317571389299 28.1448481359815617 15.8324187475866456   T   T   T
 23.1145201164051528 23.6393188816675881 13.4237153625158516   T   T   T
 15.7797914564482689 30.7619924346157596 14.6921387796370730   T   T   T
 18.6504556253345690 34.6844308493868922  8.4655245373607677   T   T   T
 24.0603680970904819 57.9579287249807109 15.9478540917694982   T   T   T
 24.5566544158000006 12.0041996399999995  1.6298450656000001   F   F   F
 24.7354944456000005 15.6401994599999998  1.5675108924000001   F   F   F
 24.8976376168529363 18.9601880139738448  1.3545395260185709   T   T   T
 24.0633949957812554 24.6169156327535958  1.3317418026782073   T   T   T
 26.3083036832328254 20.7098432319232550  2.9631200104225788   T   T   T
 20.7699364080217457 33.4649494421977209  3.0319002635303982   T   T   T
 18.1237609349267110 34.9327852430633001  1.5710043285310615   T   T   T
 26.3434143264000014 10.4498997300000003  0.0443407807000000   F   F   F
 25.7748854889000043 13.6125004500000024 15.8012229728999998   F   F   F
 26.2440677729098439 17.3105679783227160 15.7283841643234510   T   T   T
 26.7541560786322954 20.7909410271986630 12.7520082765946690   T   T   T
  0.1262136380212522 29.4700255479042106  5.3571266891564333   T   T   T
 23.5630011792110068 34.2947879918633802 15.4695038059618977   T   T   T
 28.0005862150925502 36.5494851795879399  4.4703090608883675   T   T   T
 30.8282111034486910 31.0216404249189637 14.1326770206597470   T   T   T
 27.9209774949000007 12.1914003599999994  1.3943248156999999   F   F   F
 27.4758540425000000 15.4178993700000024  1.2068404116000000   F   F   F
 27.9179169331291206 19.0983201960751146  1.5153895917438880   T   T   T
 26.6582622354265162 20.9269653551248140 15.6213016215076674   T   T   T
 28.3823687289953277 30.1303041013167245 14.7822714795310883   T   T   T
 24.8538694830568581 29.3931962800522442 16.0641003114567482   T   T   T
 22.5122047733844290 30.1657141612715947  1.6060814408446538   T   T   T
 29.3033078782994565 62.3700303123803437 11.6451637712929461   T   T   T
 29.5219665601999992 10.3959001799999999 15.9912773912000006   F   F   F
 29.9166056343999998 13.5161997300000003  0.2774512055000000   F   F   F
 29.7016992131340203 17.0034103957945284 15.9882321561123764   T   T   T
 29.1791939537095715 21.2118422705387317 15.8066190148469801   T   T   T
 30.4049757062352626 30.3369353870470100  0.8980414722520482   T   T   T
 30.3050728406696912 34.0947367003053543  8.0354266812141741   T   T   T
 27.5147528526269873 37.8186695666737904 10.6653130670737237   T   T   T
 28.4980575899389201 30.3773725328775512  7.2393447326400171   T   T   T
  1.2347961243087200 57.2885739188242624 15.9355285814331200   T   T   T
 31.3417244866999987 12.0006000900000007  1.9005486486000001   F   F   F
 31.0262763479999997 15.4908004500000018  1.6423760594000001   F   F   F
 30.8705605142062893 19.2541642525043954  1.3945645502602078   T   T   T
 30.9890307941879684 22.5231929494548204  1.2105925860395996   T   T   T
 28.5612914093608516 34.5931084386663059 11.2696361380138281   T   T   T
 30.5890458319325589 36.4400886787255374  4.2913408578492200   T   T   T
 22.7169473965970070 36.3482380929374571 14.6694500000323629   T   T   T
  3.8695411366550059 53.1496081614181151 11.9987591738503454   T   T   T
 32.7114086611999966  9.9980997299999999  3.1284348494000001   F   F   F
 32.7189983176999988 13.8960005400000011  3.0355763060999998   F   F   F
 32.5762767967646383 17.7251299286662380  2.8851690513962525   T   T   T
  0.0853414899905969 20.9475491075406062  3.0723183671437950   T   T   T
 31.2323082347817618 26.5453613682854197  5.3850156472718922   T   T   T
 29.5697728997390357 29.5490089723014933  3.1272817941416369   T   T   T
  8.0103087093244412 39.5814535647090295 13.5377711752198930   T   T   T
  0.5642644090550228 39.4571255908209082  1.4963356810124817   T   T   T
  1.3215097492000001 12.0230998200000005  4.6146542783999998   F   F   F
  1.3502167356000001 15.5025002700000005  4.9374103874999999   F   F   F
  1.2200867014861256 19.2482870744678358  4.6207459993696443   T   T   T
  0.8221867540467171 22.9783981613943880  5.0567457415778074   T   T   T
  0.8773204532779878 32.0489576299562344  5.3707593912069713   T   T   T
  0.5642180969109472 37.0322034693368849  3.2839650781559206   T   T   T
  7.8744328103490808 38.5825242798746473  2.6191829526869665   T   T   T
 31.8981913094432663 56.6550471754984315  4.8518202078808503   T   T   T
  3.1805324856000001 10.0143002699999997  3.4164892851999995   F   F   F
  2.9462573161000001 13.9922999099999998  2.9237603601000002   F   F   F
  2.8001330055339362 17.2451239943089973  3.0743056745854664   T   T   T
  2.7843690543738790 21.5686830418668620  3.3692076801303723   T   T   T
  2.2648077401445978 24.0953600181020882  3.0890074972777910   T   T   T
  3.1563779319654715 27.4929504087010486 15.7074391745795570   T   T   T
  8.6747856610730523 29.7384024774367042  1.1724187948088223   T   T   T
 32.2665822142887393 29.8820740991494063  2.5511452243216342   T   T   T
  8.0035453334810569 62.3920817312560914 15.5043471661499659   T   T   T
  1.7830666054066966 53.9301146133004181  6.8727776371203655   T   T   T
  4.7439063350000001 12.4344004500000000  4.4245993781999999   F   F   F
  4.6115906416000003 15.4142998200000001  4.3556786231000002   F   F   F
  4.4941284934573744 19.1990607538794649  4.9779713021415599   T   T   T
  5.0210053206679079 22.6612501278323322  4.4380171379326212   T   T   T
 31.8159293597243540 28.5422724631544078  0.3532526949094504   T   T   T
  6.8079647612995231 33.6680499532122113  9.3361171591586078   T   T   T
  7.6801833180741284 33.0055658645454031  6.6219097676362422   T   T   T
  2.0556939003936541 55.0024786693009844  0.6705995593517341   T   T   T
  6.1683653232999998 10.2113997300000001  3.3396962743000000   F   F   F
  6.4709430790000004 13.6574998200000000  2.9549273824000002   F   F   F
  6.2072780705877850 17.2089707601567774  2.6222632662668466   T   T   T
  6.4352500885552057 20.5567592073891845  2.8620133956793858   T   T   T
  2.3161182166087855 26.8885370706706723  2.2671221652220681   T   T   T
  9.7451996177630260 26.3754932382740996 15.7677915759365419   T   T   T
  7.1516928467300867 24.4900442028537704  2.6243272319496955   T   T   T
  3.3410573737400830 29.9638719047827138 14.3646095894611889   T   T   T
  8.4601314414785023 64.9549553881567192  7.6893531251255371   T   T   T
 18.1955224962334370 58.5648133282608683 16.0555756553378259   T   T   T
  8.2359256968000008 12.0464993699999994  4.6569064638000004   F   F   F
  7.8049918274000003 15.6680998200000001  4.7809320293999988   F   F   F
  7.5672957111967456 19.2395509483463556  4.7160521889411164   T   T   T
  5.6400012361903018 25.7513844120806183  0.8231753548673978   T   T   T
  4.5525975193779420 25.1558186948983860  2.9921694457720549   T   T   T
  8.3338401053510403 26.1762475763731892  4.2538989770193991   T   T   T
  8.4370078419880095 28.9529982634623053 15.1292493409212963   T   T   T
 14.8636244156338773 52.5799796285106993  9.9106895236569166   T   T   T
  9.5409374278999994  9.9801000900000005  3.3850009850000000   F   F   F
  9.3828839380000009 13.9473004500000020  2.8149969232999998   F   F   F
  9.5023291772205614 17.4134696869741710  3.2140873744714571   T   T   T
  9.4369112468764147 20.6654532317035269  3.0704246357299807   T   T   T
 12.9799326147315792 24.0473320635159382  4.0445291904166227   T   T   T
  9.9082787650958597 30.7039247609391523 13.7066819355442533   T   T   T
  7.5101832858354429 36.6198898498294625 13.6526860557098288   T   T   T
  5.3519760342190414 28.2335433620415088 15.2298359972150674   T   T   T
 13.6826193270413992 59.9060249391967403 11.5190073078761994   T   T   T
 10.6912856551873130 59.5660894637396083  3.4372103462036430   T   T   T
 11.1762442040999996 12.0699003600000001  4.5834870152000002   F   F   F
 11.4085393528000001 15.3504001799999994  4.3161574442999999   F   F   F
 11.5665638718504464 18.6006083184969313  4.6474659656345549   T   T   T
  7.9495901504226598 22.2864619749506545  4.7094373497250483   T   T   T
 11.5513767660162205 26.8653979894119246  1.3886186568069487   T   T   T
  6.4498989004785088 30.7855931383441757  0.7169167050756760   T   T   T
 12.2158225438942587 29.6137784138013025  0.8821805574866977   T   T   T
 19.5794071739822932 60.3814105807741868  1.1266291907297248   T   T   T
  6.2845249146040745 61.2836808054990527  5.2982029588339516   T   T   T
 12.6495374487000003 10.3283997300000010  3.3915876955000002   F   F   F
 12.6977128637999996 13.4991006300000009  2.9189408546000002   F   F   F
 12.6364305487344719 17.1843210760854994  2.8886959015355473   T   T   T
 13.4832409740067156 21.1710013098885526  3.0728733091514697   T   T   T
 13.7467038557130241 26.4196418358971137  1.9467184824441373   T   T   T
 12.5826184920153246 26.0080632906353237 14.3749238388069855   T   T   T
 13.7746702792565188 37.3628912037882515 15.0828791790555901   T   T   T
 15.8137157004776956 34.4259394401939147  4.0113289930993288   T   T   T
 18.3600888685687380 54.5078813411454135 10.4856850716401304   T   T   T
 14.6415360064000026 11.8097998200000003  4.6469457251000001   F   F   F
 14.3976921164000000 15.5969998200000006  4.4938418610999999   F   F   F
 14.5120088213003289 18.7194834503154794  5.1230356253502709   T   T   T
 14.8235994424392210 21.9333730050499689  5.6638621810011580   T   T   T
 14.0867094003737012 28.9911018843705577 14.8542478175600170   T   T   T
 14.7873029595488532 31.8269687896341651  1.0348296899391787   T   T   T
 16.1812398187861000 25.6937966397684363  5.9628791037957702   T   T   T
 16.3316166064999990 10.2509998200000023  3.1085136291000000   F   F   F
 15.9382981841000024 13.7169000899999993  3.2932668982000002   F   F   F
 15.8852227317651860 17.4476395447187649  2.8352252527501292   T   T   T
 16.2572022315416014 20.9074359754851891  3.3250806764699847   T   T   T
 16.5936720393518939 25.4458581649728721 14.8739291660631814   T   T   T
 16.7087505876036495 25.8333975081806031  2.1400719632202554   T   T   T
 16.3280311904549826 32.2161100732521675 12.7526940457761739   T   T   T
 23.3893949518452615 34.3053312196435627  7.8933225817831110   T   T   T
 25.1791369565947676 52.9154294177900013 14.3980753926553735   T   T   T
 18.0480948999999988 11.7432005400000001  5.0056886030000003   F   F   F
 17.8824517205999989 15.5421003600000009  4.7121716722000002   F   F   F
 17.8655932423535262 18.9662686272875618  4.7879890488847323   T   T   T
 15.7437122923013391 24.0467629770155966  4.1704994273876173   T   T   T
 19.3355207939685982 25.0123900624633890  7.3533139598012696   T   T   T
 25.8411873573280637 29.9312448658320314  7.6508105099201105   T   T   T
 17.6169138984239879 34.3093956382028722 13.7300072676527680   T   T   T
 19.8193469845000010 10.1447998199999994  3.0583891719000000   F   F   F
 19.5045596996000015 13.6790996400000022  3.3583321903000001   F   F   F
 19.8181458485773732 17.1993214318902155  2.7068145927392973   T   T   T
 20.1691884114513797 20.8647304019994380  2.7672218371164354   T   T   T
 18.4983289749684658 20.9883224517519054 12.5126300099134227   T   T   T
 25.0244815437550265 30.6439934665766316  2.6327751621510003   T   T   T
 19.2234419864434827 35.0260268030197466 11.4055229510846310   T   T   T
 23.9405249401579034 34.1497112090579407 13.1740191009028198   T   T   T
 21.4989266314323757 62.2227143069061981  5.8858569700415568   T   T   T
 21.9346478972323595 52.1237154357665204 14.2928517656935306   T   T   T
 23.0959639274184916 56.3972775495912515  2.0618532940034493   T   T   T
 21.0610039544000038 12.0114000000000001  4.6185099664000004   F   F   F
 21.3741411833999990 15.6663000900000000  5.0145246602000002   F   F   F
 21.0863202912433998 18.9177008359223109  4.7350575043764014   T   T   T
 18.3188156341394830 22.2698730391142874  4.4306615160022051   T   T   T
 25.6320858665815159 24.9298040736703967  6.0407629040597994   T   T   T
 19.5118475097269410 28.8214365280012004  3.3791194367209250   T   T   T
 18.5694715629264380 37.3706827076915928  3.0114808598633216   T   T   T
 20.8563896615873148 49.9818874507587481 12.1287017245904902   T   T   T
 22.2765783966657871 51.3866434786887822  3.0708177670838115   T   T   T
 22.8348974085000052 10.2968998200000019  3.1403234160000002   F   F   F
 22.9550045296000000 13.6755001800000002  3.3368043878000000   F   F   F
 22.7595931886040752 17.4780419394000255  3.0523313922413537   T   T   T
 23.1943166229851521 20.8270816895186108  3.0679404717541767   T   T   T
 16.9146367135091502 28.3316384717301872  2.6804360196302603   T   T   T
 19.8331593682492944 31.5173067042612480  3.8142545892595727   T   T   T
 22.3049598416333517 33.7728058598328928  4.8038129994684997   T   T   T
 21.8793773735481558 32.7145075093010078 13.8689183482232501   T   T   T
 18.2641865011075772 51.3890412291352945  1.1188264610146004   T   T   T
 21.2451723308251985 61.6748548126395946 11.9971069003636686   T   T   T
 24.5619331625999990 12.1175993700000006  5.0444063782999988   F   F   F
 24.4906603306999990 15.7715995500000012  4.7492830902999996   F   F   F
 24.5860889813389853 19.0588147013277371  4.4983136667111028   T   T   T
 21.8657659756763678 25.1737459503725880  3.0221011122054704   T   T   T
 24.7492496574760317 27.5683746758598360  5.0454796414533147   T   T   T
 29.0601136014293004 32.1096914457965568  1.8102923674518991   T   T   T
 19.9199091501994836 35.0494120271196579  4.9253368547619667   T   T   T
 27.3100716476477920 62.0220144873904005  0.5345414396679425   T   T   T
 26.3840000521000029 10.4741999099999994  2.9515535952000000   F   F   F
 26.0273073466000007 13.5692994599999999  3.3310208558999999   F   F   F
 26.1484452311391316 17.5554659587699184  2.9142668330119470   T   T   T
 19.0833345842593367 21.0329869365737423  6.6949998254396270   T   T   T
 22.0813794409123467 22.7367823240644285  1.2038182135413904   T   T   T
 26.8500553144452212 27.1112101945207691 15.8720319569584287   T   T   T
 23.8098760650670513 35.2675657260947233  1.6343647762019444   T   T   T
 24.0478046736186535 36.6931557086757607 12.6031775826050261   T   T   T
 32.7670942243875416 57.0011614548975274  2.6756734933577921   T   T   T
 27.9618916677000016 11.9537995499999994  4.5561759218000004   F   F   F
 27.7025390276000003 15.4142998200000001  4.5942511413000000   F   F   F
 27.6900577602682070 19.1349294010731974  5.0260824968237552   T   T   T
 24.2347640991664264 27.6796518891192811  2.2876324544065341   T   T   T
 25.6833664073766137 23.3740726822252576  3.6876510755273886   T   T   T
 30.8222226687489247 24.2637242488949560  6.4718827235419774   T   T   T
 31.0099671853439816 31.3741570290343361  4.6281015009226651   T   T   T
 29.5440747417999994 10.2014997300000001  3.5106331327000002   F   F   F
 29.2992405938999987 14.0021999099999999  3.0302746749999998   F   F   F
 29.2241134574155375 17.1977683293332362  3.2621445069604080   T   T   T
 29.7257441403938465 20.7155474008847165  3.2619493897892267   T   T   T
 28.0091499821598227 23.1077124699488969 14.2569880045204780   T   T   T
 24.7332571174846585 32.5753559061063811  0.4019754391993320   T   T   T
  0.6804936045403969 26.1704424200430239  8.0557529625000015   T   T   T
  0.2258379366264978 34.4752444178449267  5.2312905833521874   T   T   T
 29.6921073588229376 61.7117985153033644  0.6299407684671950   T   T   T
 31.1902694055000040 12.2022002700000005  4.7275949059000002   F   F   F
 31.2410842106000004 15.6995996400000006  4.9507446723999999   F   F   F
 31.3619216680078843 19.2557612992636784  4.6182528309999435   T   T   T
 27.8982747574044687 22.3514664156638290  1.9129668395544830   T   T   T
 28.6018266006510338 25.2217551343283475  4.9563966215142887   T   T   T
 29.7195400333303787 27.2671593980229545  1.7832322516030072   T   T   T
 29.0030120585702242 35.6058329860614720  2.1173878794338914   T   T   T
 28.3229913382640994 57.3712335089962409  4.1503497596487717   T   T   T
 32.7417653405000024 10.6370998199999995  6.1169392238000002   F   F   F
 32.7737721415999985 13.5342000000000020  6.4938358759000003   F   F   F
 32.6966700192978834 17.3748076957922315  6.3614744398405776   T   T   T
 32.5015892180798573 21.0148956029950220  6.6478347308370260   T   T   T
 29.2495114621416725 24.4362785540120235  2.3834710270500952   T   T   T
 32.4537983527515266 28.4923354845563708  8.1752462693760055   T   T   T
 28.0237302497771346 30.9172891084039207  4.8838256386413228   T   T   T
  3.0728161557032232 43.3196733156260834 15.1129404776111151   T   T   T
 31.4839764403127305 59.0261069069290301  3.2244632871487262   T   T   T
  2.5666268416557245 59.8888572328473003 13.6860389146858381   T   T   T
  1.3413076151000001 11.8691999999999993  7.8330557687000004   F   F   F
  1.0103527391000000 15.4719002700000008  7.8166691993999997   F   F   F
  1.2717148192546197 19.1675594051703584  7.9621831543109343   T   T   T
  0.9506136913810580 23.0745767628882064  7.8623499877600844   T   T   T
  1.1112387791234823 25.8216816434653715  5.3533377243574503   T   T   T
  5.5695794395337943 29.4665857683263468  6.1322875534999364   T   T   T
 28.5318846567144888 37.6219809735687747  6.9722493677642623   T   T   T
  3.9681659150356796 56.7403833611456037  4.5728411903779991   T   T   T
  3.1689837772999998 10.5713998200000017  5.9513040124999996   F   F   F
  2.9574761253999999 13.8780002699999994  6.1347717363000003   F   F   F
  3.1333822343093809 17.4637120850703980  6.3556279519428740   T   T   T
  2.8126618812048925 20.9788987020877506  6.5791373893447957   T   T   T
  3.0874551306729368 24.2861133271262517  5.9179268315245528   T   T   T
  4.5529080882794579 27.4897998420853327  6.7900878336815671   T   T   T
  2.2941108149520253 30.9485997966197246 10.0030911653962793   T   T   T
  6.2583579063724777 31.2363229360240027  7.8080092204648883   T   T   T
  1.4335168968454111 58.7298866360067393  3.2255658065622588   T   T   T
  4.8296972300999998 11.9493001799999998  7.7917678507000003   F   F   F
  4.6927621258999999 15.3819000900000002  7.4505362236000003   F   F   F
  4.8234281615833350 19.1615466317783749  8.0660073743065759   T   T   T
  4.1710386077101722 22.8118107868845001  8.1981249395964770   T   T   T
  2.7842157934998131 34.7404303447783889  3.7235373687618081   T   T   T
  5.5972630273825255 28.0211685109784803  4.2676056342623738   T   T   T
  4.6353601190925779 38.7012202953495219  7.0239331369447982   T   T   T
 32.1010517351500084 56.9808696163430000  7.6579057687578960   T   T   T
  3.1634525026973308 62.1948918832628834  6.7128656313784187   T   T   T
  6.3564456265000011 10.3716000000000008  6.4470854628999996   F   F   F
  6.3719538815999996 13.6196994599999996  6.0101036470000002   F   F   F
  6.2558595164064830 17.1337348083250127  6.0427124292918935   T   T   T
  5.9563767014352651 20.8737137109682571  6.5841740151596442   T   T   T
  6.2431084104881451 25.3452555402313742  4.9347313430193731   T   T   T
  9.8644209881700871 25.7859236179536424  2.3039255307007656   T   T   T
 20.3326831587562964 27.8311576088825632  5.8883105945217702   T   T   T
  3.5978505831973759 30.4066112929917018  5.1966639642365173   T   T   T
 11.6744163667744338 56.5728789561562380  8.4659305699119738   T   T   T
  8.7394068249637105 61.9525504968250473 10.0417764115031201   T   T   T
  8.2289968611000006 11.9862006300000008  7.5882178017999999   F   F   F
  7.5750061035999998 15.4178993700000024  7.9313770479999999   F   F   F
  7.4434054913630323 18.5918986566297875  7.9612473759639313   T   T   T
  6.5153591527182142 23.8548884745607914  6.7966182984822332   T   T   T
 10.4071798166838203 28.9191399874483892  2.5744981373974012   T   T   T
  5.5632210355829352 28.3875773506443601  1.7035707374239708   T   T   T
  7.7982628762763921 29.3284012076657774  7.6844073331172522   T   T   T
 14.4629630789788877 53.8264798829241258  4.3712122467321697   T   T   T
  9.8926798338000008 10.2446999999999999  6.3212922103000002   F   F   F
  9.6217784853000001 14.1516002699999994  6.4252363987000001   F   F   F
  9.2685746243854954 17.4476574740198060  6.2173117999280176   T   T   T
  8.9917059765914615 20.4139497440759961  6.6839120218421373   T   T   T
  6.2485706618468075 24.1853030383993506  9.8231781111847329   T   T   T
  9.2758875411716151 23.8432885326234505 15.9683541970023342   T   T   T
 16.4753978228236662 24.6625618209203203 10.0395781782811699   T   T   T